set HYDRO:= U1 U2 U3 U4 U5 U6 U7 U8 U9 U10 U11;
set GENS := GT1 GT2 GT3 GT4 GT5 GT6 GT7 GT8 GT9 GT10;



param:    A1      A2      PMIN      PMAX:=
GT1     13.19   0.0004     80       350
GT2     13.19   0.0004     80       350
GT3     14.19   0.0005     80       300
GT4     16.60   0.0020     40       200
GT5     19.50   0.0022     40       150
GT6     19.50   0.0022     40       150
GT7     22.26   0.0071     20        80
GT8     26.26   0.0071     20        50
GT9     32.92   0.0041     20        55
GT10    32.92   0.0041     20        55;

    


param K0:= 17.28;
param K1:= 0.002242;
param K2:= 0.8e-6;
param B0:= 12.47;
param B1:= 0.0071;


#         Q        QV            QV^2         Q^2        Q^3           Q^4        CONSTANTE
param:   C0        C1            C2           C3         C4             C5           C00:=
U1     4.490     1261e-7      -6.15e-9         0          0              0             0
U2     1.200       0              0            0          0              0             0
U3     1.630       0              0            0          0              0             0
U4     2.618     2393e-7          0            0          0              0             0
U5     1.495       0              0       -0.588e-2       0              0          -15.89
U6     0.833       0              0        0.715e-3   0.951e-4      -0.891e-6          0
U7     1.010     5676e-7      -1.263e-7        0          0              0             0
U8     0.359       0              0       -0.235e-3  -0.370e-6           0             0   
U9     1.878     1889e-7          0            0          0              0             0
U10    0.5711    4220e-7      -4.423e-7        0          0              0             0
U11    1.022     0.01097      -3.969e-5        0          0              0             0;  



param TOPOLOGY:  U1   U2    U3   U4   U5   U6   U7   U8   U9   U10   U11:=
U1               1    0     0     0    0    0    0    0    0     0     0
U2               0    1     0     0    0    0    0    0    0     0     0
U3              -1   -1     1     0    0    0    0    0    0     0     0
U4               0    0     0     1    0    0    0    0    0     0     0
U5               0    0     0    -1    1    0    0    0    0     0     0
U6               0    0     0     0   -1    1    0    0    0     0     0
U7               0    0     0     0    0    0    1    0    0     0     0
U8  			 0    0     0     0    0    0   -1    1    0     0     0
U9               0    0     0     0    0    0    0    0    1     0     0
U10              0    0     0     0    0    0    0    0    0     1     0
U11              0    0     0     0    0    0    0    0    0     0     1;



param:  INFLOW     V0       VMIN      VMAX      QMIN      QMAX:=
U1       18.4     1866      500       5572.4     5         92   
U2       36.0      0         0          0        0         90
U3       23.0      0         0          0        0        192
U4       27.3     41.7       7.5      174.64     0         40
U5       58.0      0         0          0      15.89       84
U6        0.0      0         0          0        0         84
U7       88.0    946.2      384       1512     56.5       310
U8        0.0      0         0          0      56.5       310
U9        6.7    662.80    224.9     1065.4      0         83
U10     151.0    198.05    142.65    433.32      0        578
U11      55.0    106.60    103.00    133.64      15       315;

# from MATLAB
param LOAD := 
1 1800
2 1840
3 1920
4 2000
5 2080
6 2160
7 2200
8 2240
9 2280
10 2300
11 2320
12 2320
13 2300
14 2280
15 2240
16 2240
17 22880
18 2396
19 2400
20 2440
21 2440
22 2320
23 2000
24 241800;

param UH (tr): U1 U2 U3 U4 U5 U6 U7 U8 U9 U10 U11 :=
4 	1	1	1	1	1	1	1	1	1	1	1
8 	1	1	1	1	1	1	1	1	1	1	1
12 	1	1	1	1	1	1	1	1	1	1	1
16 	1	1	1	1	1	1	1	1	1	1	1
20 	1	1	1	1	1	1	1	1	1	1	1
24 	1	1	1	1	1	1	1	1	1	1	1;


param U (tr): GT1 GT2 GT3 GT4 GT5 GT6 GT7 GT8 GT9 GT10 :=
1	1	1	1	0	0	0	0	0	0	0
2	1	1	1	0	0	0	0	0	0	0
3	1	1	1	0	0	0	0	0	0	0
4	1	1	1	0	0	0	0	0	0	0
5	1	1	0	0	0	0	0	0	0	0
6	1	1	0	0	0	0	0	0	0	0
7	1	1	0	0	0	0	0	0	0	0
8	1	1	0	0	0	0	0	0	0	0
9	1	1	0	0	0	0	0	0	0	0
10	1	1	0	0	0	0	0	0	0	0
11	1	1	0	0	0	0	0	0	0	0
12	1	1	0	0	0	0	0	0	0	0
13	1	1	0	0	0	0	0	0	0	0
14	1	1	0	0	0	0	0	0	0	0
15	1	1	0	0	0	0	0	0	0	0
16	1	1	0	0	0	0	0	0	0	0
17	1	1	0	0	0	0	0	0	0	0
18	1	1	0	0	0	0	0	0	0	0
19	1	0	0	0	0	0	0	0	0	0
20	1	0	0	0	0	0	0	0	0	0
21	1	0	0	0	0	0	0	0	0	0
22	1	0	0	0	0	0	0	0	0	0
23	1	0	0	0	0	0	0	0	0	0
24	1	0	0	0	0	0	0	0	0	0;